162 5
10 10 10 10 10 

0 0 0 0 0 0 1 2 
0 0 0 0 0 0 2 3 4 
2 0 0 2 0 0 3 11 9 6 
3 0 0 5 0 0 2 9 5 
8 0 0 7 0 0 1 6 
5 0 0 3 0 0 1 7 
9 0 0 2 0 0 1 8 
1 0 0 10 0 0 1 10 
4 0 0 5 0 0 1 10 
3 0 0 5 0 0 1 12 
4 0 0 5 0 0 1 12 
2 0 0 6 0 0 1 13 
0 0 0 0 0 0 1 14 
0 0 0 0 0 0 1 15 
6 0 0 0 0 1 2 18 16 
7 0 0 0 0 5 1 17 
4 0 0 0 0 8 2 21 19 
2 0 0 0 0 5 2 21 19 
8 0 0 0 0 2 1 20 
6 0 0 0 0 5 2 24 22 
10 0 0 0 0 5 2 24 22 
7 0 0 0 0 6 1 23 
5 0 0 0 0 6 1 25 
3 0 0 0 0 7 1 25 
0 0 0 0 0 0 1 26 
0 0 0 0 0 0 3 27 31 35 
6 0 0 0 0 1 2 34 28 
4 0 0 0 0 4 1 29 
6 0 0 0 0 5 1 30 
1 0 0 0 0 6 1 32 
1 0 0 0 0 4 1 32 
4 0 0 0 0 6 1 33 
8 0 0 0 0 3 1 36 
2 0 0 0 0 6 1 36 
3 0 0 0 0 10 1 36 
2 0 0 0 0 5 1 37 
0 0 0 0 0 0 5 38 50 72 94 116 
0 0 0 0 0 0 1 39 
2 0 1 0 0 0 2 45 40 
10 0 3 0 0 0 2 41 97 
5 0 5 0 0 0 2 47 42 
5 0 4 0 0 0 1 43 
8 0 7 0 0 0 1 44 
10 0 2 0 0 0 1 46 
8 0 4 0 0 0 1 48 
6 0 8 0 0 0 1 49 
10 0 9 0 0 0 1 49 
2 0 7 0 0 0 1 49 
0 0 0 0 0 0 2 138 150 
0 0 0 0 0 0 4 51 59 70 139 
9 0 0 1 1 0 1 52 
6 0 0 4 4 0 1 53 
8 0 0 6 3 0 1 54 
6 0 0 7 8 0 3 69 61 55 
6 0 0 4 6 0 1 56 
7 0 0 6 3 0 1 57 
9 0 0 5 6 0 2 68 58 
4 0 0 6 5 0 1 60 
5 0 0 3 10 0 2 69 63 
4 0 0 6 7 0 1 62 
1 0 0 3 6 0 1 62 
3 0 0 7 5 0 1 63 
8 0 0 7 7 0 1 64 
4 0 0 4 4 0 1 65 
1 0 0 6 3 0 1 66 
6 0 0 3 8 0 1 67 
6 0 0 2 5 0 1 71 
10 0 0 10 2 0 1 71 
8 0 0 4 4 0 1 71 
9 0 0 6 3 0 1 71 
0 0 0 0 0 0 1 162 
0 0 0 0 0 0 2 73 77 
7 1 0 1 0 0 1 74 
4 6 0 5 0 0 1 75 
3 7 0 5 0 0 1 76 
5 6 0 5 0 0 2 81 78 
5 6 0 3 0 0 2 81 78 
4 2 0 7 0 0 1 79 
7 5 0 6 0 0 1 80 
10 4 0 5 0 0 2 87 82 
1 1 0 8 0 0 1 82 
6 3 0 5 0 0 1 83 
5 5 0 9 0 0 2 86 84 
2 5 0 4 0 0 1 85 
3 7 0 8 0 0 2 92 88 
5 10 0 2 0 0 2 92 89 
9 5 0 5 0 0 1 88 
10 3 0 4 0 0 1 89 
1 4 0 6 0 0 1 90 
8 6 0 4 0 0 2 91 144 
7 7 0 3 0 0 1 93 
7 7 0 5 0 0 1 93 
0 0 0 0 0 0 1 162 
0 0 0 0 0 0 1 95 
8 0 0 0 1 1 2 103 96 
10 0 0 0 7 4 1 97 
6 0 0 0 3 3 1 98 
8 0 0 0 7 2 2 105 99 
3 0 0 0 6 3 1 100 
6 0 0 0 7 6 2 107 101 
4 0 0 0 5 9 1 102 
3 0 0 0 6 7 2 111 104 
5 0 0 0 3 6 2 111 104 
9 0 0 0 5 9 1 106 
6 0 0 0 8 5 1 107 
10 0 0 0 4 3 3 112 108 142 
1 0 0 0 3 6 2 111 108 
2 0 0 0 5 5 1 109 
2 0 0 0 2 3 1 110 
5 0 0 0 6 5 1 113 
9 0 0 0 5 7 1 113 
8 0 0 0 3 8 1 113 
9 0 0 0 6 2 1 114 
1 0 0 0 8 6 1 115 
0 0 0 0 0 0 1 162 
0 0 0 0 0 0 2 117 120 
1 0 2 0 1 0 1 118 
1 0 5 0 2 0 2 132 119 
7 0 8 0 8 0 3 134 124 121 
8 0 8 0 3 0 3 134 124 123 
3 0 3 0 5 0 1 122 
8 0 10 0 8 0 1 123 
9 0 3 0 9 0 1 125 
1 0 6 0 4 0 1 125 
1 0 3 0 2 0 1 126 
9 0 4 0 4 0 1 127 
5 0 6 0 10 0 1 128 
7 0 3 0 3 0 2 136 129 
5 0 5 0 2 0 1 130 
9 0 5 0 6 0 1 131 
8 0 7 0 9 0 1 133 
7 0 2 0 1 0 1 133 
10 0 3 0 10 0 1 135 
1 0 9 0 3 0 1 135 
3 0 3 0 4 0 1 137 
9 0 5 0 6 0 1 137 
0 0 0 0 0 0 1 162 
0 0 0 0 0 0 2 139 140 
1 0 0 0 0 1 2 143 141 
5 0 0 0 0 5 1 141 
8 0 0 0 0 3 2 148 142 
7 0 0 0 0 5 1 144 
4 0 0 0 0 5 1 144 
6 0 0 0 0 7 1 145 
8 0 0 0 0 10 1 146 
7 0 0 0 0 5 1 147 
4 0 0 0 0 3 1 149 
5 0 0 0 0 6 1 149 
0 0 0 0 0 0 1 162 
0 0 0 0 0 0 2 151 152 
1 1 0 0 0 0 2 160 153 
2 5 0 0 0 0 3 160 156 155 
10 7 0 0 0 0 1 154 
8 7 0 0 0 0 1 155 
5 3 0 0 0 0 1 157 
3 8 0 0 0 0 1 157 
10 3 0 0 0 0 1 158 
8 4 0 0 0 0 1 159 
10 7 0 0 0 0 1 161 
8 5 0 0 0 0 1 161 
0 0 0 0 0 0 1 162 
0 0 0 0 0 0 0 
